15
0 0 1 2 0 0 0 3 1 0 2 1 2 3 2 1 1 4 3 0 2 3 4 5 5 4 6 3 1 2 1 3 4 6 6 6 5 1 4 1 5 2 3 5 6 6 7 2 7 2 2 8 5 2 7 8 9 3 7 6 0 8 4 9 9 10 8 7 8 9 2 3 11 11 10 10 7 9 4 5 8 11 9 9 8 12 12 13 10 1 3 7 14 12 4 13 8 14 6 7 